# Solution for model Objective
# Objective value = 6
M 3
W4 0
W9 0
W11 0
W12 0
W13 0
W16 0
W17 0
W18 0
W20 0
W21 0
W24 0
W26 0
W28 0
W30 0
W31 0
W32 0
W34 0
W36 0
W37 0
W38 0
W39 1
W40 1
W41 0
W45 0
W47 0
W50 0
W51 0
W52 0
W53 0
W54 0
W55 0
W58 0
W60 0
W62 0
W63 0
W64 0
W65 0
W66 0
W67 0
W68 0
W69 0
W70 0
W71 1
W72 0
W0 0
W1 1
W2 0
W3 2
W5 3
W6 3
W7 3
W8 2
W10 3
W14 3
W15 3
W19 3
W22 3
W23 3
W25 3
W27 3
W29 3
W33 3
W35 0
W42 0
W43 3
W44 2
W46 3
W48 3
W49 2
W56 3
W57 3
W59 2
W61 0
d0_1 0
d0_2 0
d0_3 0
d0_4 1
d0_5 0
d0_6 0
d0_7 0
d0_8 0
d0_9 0
d0_0 0
d1_1 1
d1_2 0
d1_3 0
d1_4 0
d1_5 0
d1_6 0
d1_7 0
d1_8 0
d1_9 0
d1_0 0
d2_1 0
d2_2 0
d2_3 1
d2_4 0
d2_5 0
d2_6 0
d2_7 0
d2_8 0
d2_9 0
d2_0 0
d3_1 0
d3_2 1
d3_3 0
d3_4 0
d3_5 0
d3_6 0
d3_7 0
d3_8 0
d3_9 0
d3_0 0
d4_1 0
d4_2 0
d4_3 1
d4_4 0
d4_5 0
d4_6 0
d4_7 0
d4_8 0
d4_9 0
d4_0 0
d5_1 0
d5_2 0
d5_3 0
d5_4 1
d5_5 0
d5_6 0
d5_7 0
d5_8 0
d5_9 0
d5_0 0
d6_1 0
d6_2 0
d6_3 1
d6_4 0
d6_5 0
d6_6 0
d6_7 0
d6_8 0
d6_9 0
d6_0 0
d7_1 0
d7_2 0
d7_3 0
d7_4 1
d7_5 0
d7_6 0
d7_7 0
d7_8 0
d7_9 0
d7_0 0
d8_1 1
d8_2 0
d8_3 0
d8_4 0
d8_5 0
d8_6 0
d8_7 0
d8_8 0
d8_9 0
d8_0 0
d9_1 0
d9_2 1
d9_3 0
d9_4 0
d9_5 0
d9_6 0
d9_7 0
d9_8 0
d9_9 0
d9_0 0
